1 1507 7
2 1335 7
3 1314 7
5 1302 7
6 1268 8
9 1265 7
11 1192 8
80 1185 7
88 1181 7
97 1150 7
117 1148 7
142 1137 7
370 1125 7



1 1551 7
2 1354 8
3 1330 7
5 1282 8
7 1206 7
8 1150 7
178 1122 7
498 1116 7



1 1544 7
2 1296 7
3 1283 8
4 1270 7
7 1253 8
8 1251 8
9 1220 7
15 1218 7
22 1211 7
26 1198 7
35 1188 7
76 1116 7
78 1074 7



1 1564 8
2 1358 7
3 1252 7
6 1242 7
11 1231 7
12 1228 7
13 1206 7
30 1202 8
49 1186 7
61 1158 8
110 1144 7
227 1128 7



1 1525 8
2 1327 8
3 1314 7
4 1287 7
6 1196 7
26 1190 7
33 1175 7
50 1156 7
108 1112 7
166 1100 7



